DIMENSION: 10
EDGE_WEIGHT_TYPE: EXPLICIT
EDGE_WEIGHT_FORMAT: FULL_MATRIX
EDGE_WEIGHT_SECTION:
32767 95 32767 3 32767 32767 88 32767 32 32767 
95 32767 32767 32767 32767 32767 32767 32767 86 84 
32767 32767 32767 32767 32767 32767 99 32767 41 32767 
3 32767 32767 32767 32767 14 11 2 44 32767 
32767 32767 32767 32767 32767 24 32767 32767 32767 32767 
32767 32767 32767 14 24 32767 32767 32767 32767 32767 
88 32767 99 11 32767 32767 32767 32767 45 32767 
32767 32767 32767 2 32767 32767 32767 32767 32767 72 
32 86 41 44 32767 32767 45 32767 32767 32767 
32767 84 32767 32767 32767 32767 32767 72 32767 32767 
EOF